p cnf 25 100
1 2 23 0
-1 3 7 0
-1 4 -12 0
-8 -1 -5 0
1 -11 6 0
-1 18 -9 0
1 10 -20 0
1 21 13 0
16 -1 -14 0
24 1 -15 0
-1 -19 17 0
-1 22 -25 0
2 3 -21 0
-2 -11 -4 0
16 2 5 0
25 2 -6 0
2 -15 7 0
-8 2 12 0
-9 -2 19 0
-24 -2 10 0
2 18 -13 0
2 -20 14 0
17 2 22 0
-25 3 4 0
10 3 -5 0
3 6 -15 0
-8 -9 3 0
11 -3 13 0
16 -3 12 0
-24 3 14 0
-17 -3 -20 0
-19 -18 3 0
-3 22 -23 0
-18 4 5 0
8 -4 -6 0
4 -22 7 0
9 -4 20 0
-10 19 -4 0
4 13 -15 0
-17 -4 14 0
-16 24 4 0
-4 21 -23 0
21 -5 6 0
13 -5 -7 0
-9 12 -5 0
-11 -5 -23 0
-19 -5 14 0
5 -22 15 0
24 -17 5 0
25 -20 -5 0
-16 -6 -7 0
24 9 6 0
-10 13 -6 0
12 6 -22 0
18 6 14 0
17 6 -23 0
19 20 6 0
8 17 7 0
-9 21 7 0
-10 11 -7 0
18 12 7 0
-25 14 7 0
-24 19 7 0
20 23 7 0
8 16 10 0
8 -18 -11 0
-8 24 13 0
-8 14 -22 0
-8 -23 15 0
-8 -25 19 0
8 -20 -21 0
-9 -10 22 0
-9 -11 17 0
-9 -13 -23 0
-9 14 15 0
16 9 25 0
-10 -12 15 0
-10 -14 -23 0
-17 -10 18 0
-25 10 21 0
25 11 12 0
-11 21 14 0
-11 -20 -15 0
-16 -19 11 0
-24 11 -22 0
12 13 14 0
17 12 21 0
19 -12 -23 0
-24 12 -20 0
16 20 -13 0
17 13 25 0
-19 -13 22 0
16 17 15 0
-25 -18 -15 0
-19 -21 -15 0
-16 -18 -23 0
-16 -21 22 0
18 20 -22 0
24 -18 -21 0
24 25 23 0
